% Generated by MiniZinc 2.9.3
% Solver library: /home/icwmmarijnisse/MiniZincIDE-2.9.3-bundle-linux-x86_64/share/minizinc/linear
% Command line invocation: minizinc --compile --fzn ./instance.fzn --ozn ./instance.ozn --solver linear-solver ../../../../benchmarks/models/linear/instances/rcpsp_smaller.mzn ../../../../benchmarks/models/linear/instances/j304_3.dzn 

array [1..2] of int: X_INTRODUCED_34_ = [1,-1];
array [1..4] of int: X_INTRODUCED_74_ = [2,4,10,3];
array [1..4] of int: X_INTRODUCED_118_ = [2,2,10,3];
array [1..4] of int: X_INTRODUCED_140_ = [2,2,4,3];
array [1..4] of int: X_INTRODUCED_162_ = [2,2,4,10];
array [1..2] of int: X_INTRODUCED_178_ = [4,5];
array [1..2] of int: X_INTRODUCED_191_ = [9,5];
array [1..2] of int: X_INTRODUCED_203_ = [9,4];
array [1..3] of int: X_INTRODUCED_216_ = [1,-1,876];
array [1..3] of int: X_INTRODUCED_220_ = [-1,1,-877];
array [1..3] of int: X_INTRODUCED_230_ = [1,-1,870];
array [1..3] of int: X_INTRODUCED_234_ = [-1,1,-883];
array [1..3] of int: X_INTRODUCED_240_ = [1,1,-1];
array [1..3] of int: X_INTRODUCED_256_ = [1,-1,827];
array [1..3] of int: X_INTRODUCED_260_ = [-1,1,-926];
array [1..3] of int: X_INTRODUCED_281_ = [1,-1,852];
array [1..3] of int: X_INTRODUCED_285_ = [-1,1,-901];
array [1..3] of int: X_INTRODUCED_306_ = [1,-1,871];
array [1..3] of int: X_INTRODUCED_310_ = [-1,1,-882];
array [1..3] of int: X_INTRODUCED_326_ = [1,-1,867];
array [1..3] of int: X_INTRODUCED_330_ = [-1,1,-886];
array [1..3] of int: X_INTRODUCED_616_ = [1,-1,777];
array [1..3] of int: X_INTRODUCED_620_ = [-1,1,-976];
array [1..3] of int: X_INTRODUCED_641_ = [1,-1,652];
array [1..3] of int: X_INTRODUCED_645_ = [-1,1,-1101];
var 0..876: X_INTRODUCED_16_;
var 0..876: X_INTRODUCED_17_;
var 0..876: X_INTRODUCED_18_;
var 0..876: X_INTRODUCED_19_;
var 0..876: X_INTRODUCED_20_;
var 0..876: X_INTRODUCED_21_;
var 0..876: X_INTRODUCED_22_;
var 0..876: X_INTRODUCED_23_;
var 0..876: X_INTRODUCED_24_;
var 0..876: X_INTRODUCED_25_;
var 0..876: X_INTRODUCED_26_;
var 0..876: X_INTRODUCED_27_;
var 0..876: X_INTRODUCED_28_;
var 0..876: X_INTRODUCED_29_;
var 0..876: X_INTRODUCED_30_;
var 0..877: Objective:: output_var;
var 0..1: X_INTRODUCED_50_ ::var_is_introduced ;
var 0..1: X_INTRODUCED_56_ ::var_is_introduced ;
var 0..1: X_INTRODUCED_63_ ::var_is_introduced ;
var 0..1: X_INTRODUCED_70_ ::var_is_introduced ;
var 0..1: X_INTRODUCED_79_ ::var_is_introduced ;
var 0..1: X_INTRODUCED_84_ ::var_is_introduced ;
var 0..1: X_INTRODUCED_89_ ::var_is_introduced ;
var 0..1: X_INTRODUCED_94_ ::var_is_introduced ;
var 0..1: X_INTRODUCED_100_ ::var_is_introduced ;
var 0..1: X_INTRODUCED_105_ ::var_is_introduced ;
var 0..1: X_INTRODUCED_110_ ::var_is_introduced ;
var 0..1: X_INTRODUCED_115_ ::var_is_introduced ;
var 0..1: X_INTRODUCED_122_ ::var_is_introduced ;
var 0..1: X_INTRODUCED_127_ ::var_is_introduced ;
var 0..1: X_INTRODUCED_132_ ::var_is_introduced ;
var 0..1: X_INTRODUCED_137_ ::var_is_introduced ;
var 0..1: X_INTRODUCED_144_ ::var_is_introduced ;
var 0..1: X_INTRODUCED_149_ ::var_is_introduced ;
var 0..1: X_INTRODUCED_154_ ::var_is_introduced ;
var 0..1: X_INTRODUCED_159_ ::var_is_introduced ;
var 0..1: X_INTRODUCED_169_ ::var_is_introduced ;
var 0..1: X_INTRODUCED_174_ ::var_is_introduced ;
var 0..1: X_INTRODUCED_182_ ::var_is_introduced ;
var 0..1: X_INTRODUCED_188_ ::var_is_introduced ;
var 0..1: X_INTRODUCED_195_ ::var_is_introduced ;
var 0..1: X_INTRODUCED_200_ ::var_is_introduced ;
var 0..1: X_INTRODUCED_212_ ::var_is_introduced ;
var 0..1: X_INTRODUCED_224_ ::var_is_introduced ;
var 0..1: X_INTRODUCED_243_ ::var_is_introduced ;
var 0..1: X_INTRODUCED_251_ ::var_is_introduced ;
var 0..1: X_INTRODUCED_268_ ::var_is_introduced ;
var 0..1: X_INTRODUCED_276_ ::var_is_introduced ;
var 0..1: X_INTRODUCED_293_ ::var_is_introduced ;
var 0..1: X_INTRODUCED_301_ ::var_is_introduced ;
var 0..1: X_INTRODUCED_316_ ::var_is_introduced ;
var 0..1: X_INTRODUCED_321_ ::var_is_introduced ;
var 0..1: X_INTRODUCED_338_ ::var_is_introduced ;
var 0..1: X_INTRODUCED_345_ ::var_is_introduced ;
var 0..1: X_INTRODUCED_358_ ::var_is_introduced ;
var 0..1: X_INTRODUCED_365_ ::var_is_introduced ;
var 0..1: X_INTRODUCED_378_ ::var_is_introduced ;
var 0..1: X_INTRODUCED_385_ ::var_is_introduced ;
var 0..1: X_INTRODUCED_396_ ::var_is_introduced ;
var 0..1: X_INTRODUCED_401_ ::var_is_introduced ;
var 0..1: X_INTRODUCED_412_ ::var_is_introduced ;
var 0..1: X_INTRODUCED_417_ ::var_is_introduced ;
var 0..1: X_INTRODUCED_430_ ::var_is_introduced ;
var 0..1: X_INTRODUCED_437_ ::var_is_introduced ;
var 0..1: X_INTRODUCED_450_ ::var_is_introduced ;
var 0..1: X_INTRODUCED_457_ ::var_is_introduced ;
var 0..1: X_INTRODUCED_468_ ::var_is_introduced ;
var 0..1: X_INTRODUCED_473_ ::var_is_introduced ;
var 0..1: X_INTRODUCED_484_ ::var_is_introduced ;
var 0..1: X_INTRODUCED_489_ ::var_is_introduced ;
var 0..1: X_INTRODUCED_500_ ::var_is_introduced ;
var 0..1: X_INTRODUCED_505_ ::var_is_introduced ;
var 0..1: X_INTRODUCED_518_ ::var_is_introduced ;
var 0..1: X_INTRODUCED_525_ ::var_is_introduced ;
var 0..1: X_INTRODUCED_536_ ::var_is_introduced ;
var 0..1: X_INTRODUCED_541_ ::var_is_introduced ;
var 0..1: X_INTRODUCED_552_ ::var_is_introduced ;
var 0..1: X_INTRODUCED_557_ ::var_is_introduced ;
var 0..1: X_INTRODUCED_568_ ::var_is_introduced ;
var 0..1: X_INTRODUCED_573_ ::var_is_introduced ;
var 0..1: X_INTRODUCED_584_ ::var_is_introduced ;
var 0..1: X_INTRODUCED_589_ ::var_is_introduced ;
var 0..1: X_INTRODUCED_603_ ::var_is_introduced ;
var 0..1: X_INTRODUCED_611_ ::var_is_introduced ;
var 0..1: X_INTRODUCED_628_ ::var_is_introduced ;
var 0..1: X_INTRODUCED_636_ ::var_is_introduced ;
var 0..1: X_INTRODUCED_651_ ::var_is_introduced ;
var 0..1: X_INTRODUCED_656_ ::var_is_introduced ;
var 0..1: X_INTRODUCED_669_ ::var_is_introduced ;
var 0..1: X_INTRODUCED_676_ ::var_is_introduced ;
var 0..1: X_INTRODUCED_687_ ::var_is_introduced ;
var 0..1: X_INTRODUCED_692_ ::var_is_introduced ;
var 0..1: X_INTRODUCED_703_ ::var_is_introduced ;
var 0..1: X_INTRODUCED_708_ ::var_is_introduced ;
array [1..15] of var int: Start:: output_array([1..15]) = [X_INTRODUCED_16_,X_INTRODUCED_17_,X_INTRODUCED_18_,X_INTRODUCED_19_,X_INTRODUCED_20_,X_INTRODUCED_21_,X_INTRODUCED_22_,X_INTRODUCED_23_,X_INTRODUCED_24_,X_INTRODUCED_25_,X_INTRODUCED_26_,X_INTRODUCED_27_,X_INTRODUCED_28_,X_INTRODUCED_29_,X_INTRODUCED_30_];
array [1..15] of var int: X_INTRODUCED_207_ ::var_is_introduced  = [X_INTRODUCED_16_,X_INTRODUCED_17_,X_INTRODUCED_18_,X_INTRODUCED_19_,X_INTRODUCED_20_,X_INTRODUCED_21_,X_INTRODUCED_22_,X_INTRODUCED_23_,X_INTRODUCED_24_,X_INTRODUCED_25_,X_INTRODUCED_26_,X_INTRODUCED_27_,X_INTRODUCED_28_,X_INTRODUCED_29_,Objective];
constraint int_lin_le(X_INTRODUCED_34_,[X_INTRODUCED_16_,X_INTRODUCED_19_],-6);
constraint int_lin_le(X_INTRODUCED_34_,[X_INTRODUCED_16_,X_INTRODUCED_21_],-6);
constraint int_lin_le(X_INTRODUCED_34_,[X_INTRODUCED_16_,X_INTRODUCED_24_],-6);
constraint int_lin_le(X_INTRODUCED_34_,[X_INTRODUCED_18_,X_INTRODUCED_22_],-8);
constraint int_lin_le(X_INTRODUCED_34_,[X_INTRODUCED_19_,X_INTRODUCED_20_],-7);
constraint int_lin_le(X_INTRODUCED_34_,[X_INTRODUCED_19_,X_INTRODUCED_23_],-7);
constraint int_lin_le(X_INTRODUCED_34_,[X_INTRODUCED_20_,X_INTRODUCED_29_],-50);
constraint int_lin_le(X_INTRODUCED_34_,[X_INTRODUCED_21_,X_INTRODUCED_25_],-100);
constraint int_lin_le(X_INTRODUCED_34_,[X_INTRODUCED_23_,X_INTRODUCED_26_],-100);
constraint int_lin_le(X_INTRODUCED_34_,[X_INTRODUCED_24_,X_INTRODUCED_27_],-175);
constraint int_lin_le(X_INTRODUCED_34_,[X_INTRODUCED_25_,X_INTRODUCED_28_],-225);
constraint int_lin_le(X_INTRODUCED_74_,[X_INTRODUCED_50_,X_INTRODUCED_56_,X_INTRODUCED_63_,X_INTRODUCED_70_],12);
constraint int_lin_le(X_INTRODUCED_74_,[X_INTRODUCED_79_,X_INTRODUCED_84_,X_INTRODUCED_89_,X_INTRODUCED_94_],12);
constraint int_lin_le(X_INTRODUCED_118_,[X_INTRODUCED_100_,X_INTRODUCED_105_,X_INTRODUCED_110_,X_INTRODUCED_115_],10);
constraint int_lin_le(X_INTRODUCED_140_,[X_INTRODUCED_122_,X_INTRODUCED_127_,X_INTRODUCED_132_,X_INTRODUCED_137_],4);
constraint int_lin_le(X_INTRODUCED_162_,[X_INTRODUCED_144_,X_INTRODUCED_149_,X_INTRODUCED_154_,X_INTRODUCED_159_],11);
constraint int_lin_le(X_INTRODUCED_178_,[X_INTRODUCED_169_,X_INTRODUCED_174_],0);
constraint int_lin_le(X_INTRODUCED_191_,[X_INTRODUCED_182_,X_INTRODUCED_188_],5);
constraint int_lin_le(X_INTRODUCED_203_,[X_INTRODUCED_195_,X_INTRODUCED_200_],4);
constraint int_lin_le(X_INTRODUCED_34_,[X_INTRODUCED_17_,Objective],-10);
constraint int_lin_le(X_INTRODUCED_34_,[X_INTRODUCED_22_,Objective],-25);
constraint int_lin_le(X_INTRODUCED_34_,[X_INTRODUCED_26_,Objective],-150);
constraint int_lin_le(X_INTRODUCED_34_,[X_INTRODUCED_27_,Objective],-2);
constraint int_lin_le(X_INTRODUCED_34_,[X_INTRODUCED_28_,Objective],-6);
constraint int_lin_le(X_INTRODUCED_216_,[X_INTRODUCED_19_,X_INTRODUCED_17_,X_INTRODUCED_212_],876);
constraint int_lin_le(X_INTRODUCED_220_,[X_INTRODUCED_19_,X_INTRODUCED_17_,X_INTRODUCED_212_],-1);
constraint int_lin_le(X_INTRODUCED_230_,[X_INTRODUCED_17_,X_INTRODUCED_19_,X_INTRODUCED_224_],876);
constraint int_lin_le(X_INTRODUCED_234_,[X_INTRODUCED_17_,X_INTRODUCED_19_,X_INTRODUCED_224_],-7);
constraint int_lin_le(X_INTRODUCED_240_,[X_INTRODUCED_212_,X_INTRODUCED_224_,X_INTRODUCED_50_],1);
constraint int_lin_le(X_INTRODUCED_34_,[X_INTRODUCED_50_,X_INTRODUCED_212_],0);
constraint int_lin_le(X_INTRODUCED_34_,[X_INTRODUCED_50_,X_INTRODUCED_224_],0);
constraint int_lin_le(X_INTRODUCED_216_,[X_INTRODUCED_20_,X_INTRODUCED_17_,X_INTRODUCED_243_],876);
constraint int_lin_le(X_INTRODUCED_220_,[X_INTRODUCED_20_,X_INTRODUCED_17_,X_INTRODUCED_243_],-1);
constraint int_lin_le(X_INTRODUCED_256_,[X_INTRODUCED_17_,X_INTRODUCED_20_,X_INTRODUCED_251_],876);
constraint int_lin_le(X_INTRODUCED_260_,[X_INTRODUCED_17_,X_INTRODUCED_20_,X_INTRODUCED_251_],-50);
constraint int_lin_le(X_INTRODUCED_240_,[X_INTRODUCED_243_,X_INTRODUCED_251_,X_INTRODUCED_56_],1);
constraint int_lin_le(X_INTRODUCED_34_,[X_INTRODUCED_56_,X_INTRODUCED_243_],0);
constraint int_lin_le(X_INTRODUCED_34_,[X_INTRODUCED_56_,X_INTRODUCED_251_],0);
constraint int_lin_le(X_INTRODUCED_216_,[X_INTRODUCED_22_,X_INTRODUCED_17_,X_INTRODUCED_268_],876);
constraint int_lin_le(X_INTRODUCED_220_,[X_INTRODUCED_22_,X_INTRODUCED_17_,X_INTRODUCED_268_],-1);
constraint int_lin_le(X_INTRODUCED_281_,[X_INTRODUCED_17_,X_INTRODUCED_22_,X_INTRODUCED_276_],876);
constraint int_lin_le(X_INTRODUCED_285_,[X_INTRODUCED_17_,X_INTRODUCED_22_,X_INTRODUCED_276_],-25);
constraint int_lin_le(X_INTRODUCED_240_,[X_INTRODUCED_268_,X_INTRODUCED_276_,X_INTRODUCED_63_],1);
constraint int_lin_le(X_INTRODUCED_34_,[X_INTRODUCED_63_,X_INTRODUCED_268_],0);
constraint int_lin_le(X_INTRODUCED_34_,[X_INTRODUCED_63_,X_INTRODUCED_276_],0);
constraint int_lin_le(X_INTRODUCED_216_,[X_INTRODUCED_28_,X_INTRODUCED_17_,X_INTRODUCED_293_],876);
constraint int_lin_le(X_INTRODUCED_220_,[X_INTRODUCED_28_,X_INTRODUCED_17_,X_INTRODUCED_293_],-1);
constraint int_lin_le(X_INTRODUCED_306_,[X_INTRODUCED_17_,X_INTRODUCED_28_,X_INTRODUCED_301_],876);
constraint int_lin_le(X_INTRODUCED_310_,[X_INTRODUCED_17_,X_INTRODUCED_28_,X_INTRODUCED_301_],-6);
constraint int_lin_le(X_INTRODUCED_240_,[X_INTRODUCED_293_,X_INTRODUCED_301_,X_INTRODUCED_70_],1);
constraint int_lin_le(X_INTRODUCED_34_,[X_INTRODUCED_70_,X_INTRODUCED_293_],0);
constraint int_lin_le(X_INTRODUCED_34_,[X_INTRODUCED_70_,X_INTRODUCED_301_],0);
constraint int_lin_le(X_INTRODUCED_216_,[X_INTRODUCED_17_,X_INTRODUCED_19_,X_INTRODUCED_316_],876);
constraint int_lin_le(X_INTRODUCED_220_,[X_INTRODUCED_17_,X_INTRODUCED_19_,X_INTRODUCED_316_],-1);
constraint int_lin_le(X_INTRODUCED_326_,[X_INTRODUCED_19_,X_INTRODUCED_17_,X_INTRODUCED_321_],876);
constraint int_lin_le(X_INTRODUCED_330_,[X_INTRODUCED_19_,X_INTRODUCED_17_,X_INTRODUCED_321_],-10);
constraint int_lin_le(X_INTRODUCED_240_,[X_INTRODUCED_316_,X_INTRODUCED_321_,X_INTRODUCED_79_],1);
constraint int_lin_le(X_INTRODUCED_34_,[X_INTRODUCED_79_,X_INTRODUCED_316_],0);
constraint int_lin_le(X_INTRODUCED_34_,[X_INTRODUCED_79_,X_INTRODUCED_321_],0);
constraint int_lin_le(X_INTRODUCED_216_,[X_INTRODUCED_20_,X_INTRODUCED_19_,X_INTRODUCED_338_],876);
constraint int_lin_le(X_INTRODUCED_220_,[X_INTRODUCED_20_,X_INTRODUCED_19_,X_INTRODUCED_338_],-1);
constraint int_lin_le(X_INTRODUCED_256_,[X_INTRODUCED_19_,X_INTRODUCED_20_,X_INTRODUCED_345_],876);
constraint int_lin_le(X_INTRODUCED_260_,[X_INTRODUCED_19_,X_INTRODUCED_20_,X_INTRODUCED_345_],-50);
constraint int_lin_le(X_INTRODUCED_240_,[X_INTRODUCED_338_,X_INTRODUCED_345_,X_INTRODUCED_84_],1);
constraint int_lin_le(X_INTRODUCED_34_,[X_INTRODUCED_84_,X_INTRODUCED_338_],0);
constraint int_lin_le(X_INTRODUCED_34_,[X_INTRODUCED_84_,X_INTRODUCED_345_],0);
constraint int_lin_le(X_INTRODUCED_216_,[X_INTRODUCED_22_,X_INTRODUCED_19_,X_INTRODUCED_358_],876);
constraint int_lin_le(X_INTRODUCED_220_,[X_INTRODUCED_22_,X_INTRODUCED_19_,X_INTRODUCED_358_],-1);
constraint int_lin_le(X_INTRODUCED_281_,[X_INTRODUCED_19_,X_INTRODUCED_22_,X_INTRODUCED_365_],876);
constraint int_lin_le(X_INTRODUCED_285_,[X_INTRODUCED_19_,X_INTRODUCED_22_,X_INTRODUCED_365_],-25);
constraint int_lin_le(X_INTRODUCED_240_,[X_INTRODUCED_358_,X_INTRODUCED_365_,X_INTRODUCED_89_],1);
constraint int_lin_le(X_INTRODUCED_34_,[X_INTRODUCED_89_,X_INTRODUCED_358_],0);
constraint int_lin_le(X_INTRODUCED_34_,[X_INTRODUCED_89_,X_INTRODUCED_365_],0);
constraint int_lin_le(X_INTRODUCED_216_,[X_INTRODUCED_28_,X_INTRODUCED_19_,X_INTRODUCED_378_],876);
constraint int_lin_le(X_INTRODUCED_220_,[X_INTRODUCED_28_,X_INTRODUCED_19_,X_INTRODUCED_378_],-1);
constraint int_lin_le(X_INTRODUCED_306_,[X_INTRODUCED_19_,X_INTRODUCED_28_,X_INTRODUCED_385_],876);
constraint int_lin_le(X_INTRODUCED_310_,[X_INTRODUCED_19_,X_INTRODUCED_28_,X_INTRODUCED_385_],-6);
constraint int_lin_le(X_INTRODUCED_240_,[X_INTRODUCED_378_,X_INTRODUCED_385_,X_INTRODUCED_94_],1);
constraint int_lin_le(X_INTRODUCED_34_,[X_INTRODUCED_94_,X_INTRODUCED_378_],0);
constraint int_lin_le(X_INTRODUCED_34_,[X_INTRODUCED_94_,X_INTRODUCED_385_],0);
constraint int_lin_le(X_INTRODUCED_216_,[X_INTRODUCED_17_,X_INTRODUCED_20_,X_INTRODUCED_396_],876);
constraint int_lin_le(X_INTRODUCED_220_,[X_INTRODUCED_17_,X_INTRODUCED_20_,X_INTRODUCED_396_],-1);
constraint int_lin_le(X_INTRODUCED_326_,[X_INTRODUCED_20_,X_INTRODUCED_17_,X_INTRODUCED_401_],876);
constraint int_lin_le(X_INTRODUCED_330_,[X_INTRODUCED_20_,X_INTRODUCED_17_,X_INTRODUCED_401_],-10);
constraint int_lin_le(X_INTRODUCED_240_,[X_INTRODUCED_396_,X_INTRODUCED_401_,X_INTRODUCED_100_],1);
constraint int_lin_le(X_INTRODUCED_34_,[X_INTRODUCED_100_,X_INTRODUCED_396_],0);
constraint int_lin_le(X_INTRODUCED_34_,[X_INTRODUCED_100_,X_INTRODUCED_401_],0);
constraint int_lin_le(X_INTRODUCED_216_,[X_INTRODUCED_19_,X_INTRODUCED_20_,X_INTRODUCED_412_],876);
constraint int_lin_le(X_INTRODUCED_220_,[X_INTRODUCED_19_,X_INTRODUCED_20_,X_INTRODUCED_412_],-1);
constraint int_lin_le(X_INTRODUCED_230_,[X_INTRODUCED_20_,X_INTRODUCED_19_,X_INTRODUCED_417_],876);
constraint int_lin_le(X_INTRODUCED_234_,[X_INTRODUCED_20_,X_INTRODUCED_19_,X_INTRODUCED_417_],-7);
constraint int_lin_le(X_INTRODUCED_240_,[X_INTRODUCED_412_,X_INTRODUCED_417_,X_INTRODUCED_105_],1);
constraint int_lin_le(X_INTRODUCED_34_,[X_INTRODUCED_105_,X_INTRODUCED_412_],0);
constraint int_lin_le(X_INTRODUCED_34_,[X_INTRODUCED_105_,X_INTRODUCED_417_],0);
constraint int_lin_le(X_INTRODUCED_216_,[X_INTRODUCED_22_,X_INTRODUCED_20_,X_INTRODUCED_430_],876);
constraint int_lin_le(X_INTRODUCED_220_,[X_INTRODUCED_22_,X_INTRODUCED_20_,X_INTRODUCED_430_],-1);
constraint int_lin_le(X_INTRODUCED_281_,[X_INTRODUCED_20_,X_INTRODUCED_22_,X_INTRODUCED_437_],876);
constraint int_lin_le(X_INTRODUCED_285_,[X_INTRODUCED_20_,X_INTRODUCED_22_,X_INTRODUCED_437_],-25);
constraint int_lin_le(X_INTRODUCED_240_,[X_INTRODUCED_430_,X_INTRODUCED_437_,X_INTRODUCED_110_],1);
constraint int_lin_le(X_INTRODUCED_34_,[X_INTRODUCED_110_,X_INTRODUCED_430_],0);
constraint int_lin_le(X_INTRODUCED_34_,[X_INTRODUCED_110_,X_INTRODUCED_437_],0);
constraint int_lin_le(X_INTRODUCED_216_,[X_INTRODUCED_28_,X_INTRODUCED_20_,X_INTRODUCED_450_],876);
constraint int_lin_le(X_INTRODUCED_220_,[X_INTRODUCED_28_,X_INTRODUCED_20_,X_INTRODUCED_450_],-1);
constraint int_lin_le(X_INTRODUCED_306_,[X_INTRODUCED_20_,X_INTRODUCED_28_,X_INTRODUCED_457_],876);
constraint int_lin_le(X_INTRODUCED_310_,[X_INTRODUCED_20_,X_INTRODUCED_28_,X_INTRODUCED_457_],-6);
constraint int_lin_le(X_INTRODUCED_240_,[X_INTRODUCED_450_,X_INTRODUCED_457_,X_INTRODUCED_115_],1);
constraint int_lin_le(X_INTRODUCED_34_,[X_INTRODUCED_115_,X_INTRODUCED_450_],0);
constraint int_lin_le(X_INTRODUCED_34_,[X_INTRODUCED_115_,X_INTRODUCED_457_],0);
constraint int_lin_le(X_INTRODUCED_216_,[X_INTRODUCED_17_,X_INTRODUCED_22_,X_INTRODUCED_468_],876);
constraint int_lin_le(X_INTRODUCED_220_,[X_INTRODUCED_17_,X_INTRODUCED_22_,X_INTRODUCED_468_],-1);
constraint int_lin_le(X_INTRODUCED_326_,[X_INTRODUCED_22_,X_INTRODUCED_17_,X_INTRODUCED_473_],876);
constraint int_lin_le(X_INTRODUCED_330_,[X_INTRODUCED_22_,X_INTRODUCED_17_,X_INTRODUCED_473_],-10);
constraint int_lin_le(X_INTRODUCED_240_,[X_INTRODUCED_468_,X_INTRODUCED_473_,X_INTRODUCED_122_],1);
constraint int_lin_le(X_INTRODUCED_34_,[X_INTRODUCED_122_,X_INTRODUCED_468_],0);
constraint int_lin_le(X_INTRODUCED_34_,[X_INTRODUCED_122_,X_INTRODUCED_473_],0);
constraint int_lin_le(X_INTRODUCED_216_,[X_INTRODUCED_19_,X_INTRODUCED_22_,X_INTRODUCED_484_],876);
constraint int_lin_le(X_INTRODUCED_220_,[X_INTRODUCED_19_,X_INTRODUCED_22_,X_INTRODUCED_484_],-1);
constraint int_lin_le(X_INTRODUCED_230_,[X_INTRODUCED_22_,X_INTRODUCED_19_,X_INTRODUCED_489_],876);
constraint int_lin_le(X_INTRODUCED_234_,[X_INTRODUCED_22_,X_INTRODUCED_19_,X_INTRODUCED_489_],-7);
constraint int_lin_le(X_INTRODUCED_240_,[X_INTRODUCED_484_,X_INTRODUCED_489_,X_INTRODUCED_127_],1);
constraint int_lin_le(X_INTRODUCED_34_,[X_INTRODUCED_127_,X_INTRODUCED_484_],0);
constraint int_lin_le(X_INTRODUCED_34_,[X_INTRODUCED_127_,X_INTRODUCED_489_],0);
constraint int_lin_le(X_INTRODUCED_216_,[X_INTRODUCED_20_,X_INTRODUCED_22_,X_INTRODUCED_500_],876);
constraint int_lin_le(X_INTRODUCED_220_,[X_INTRODUCED_20_,X_INTRODUCED_22_,X_INTRODUCED_500_],-1);
constraint int_lin_le(X_INTRODUCED_256_,[X_INTRODUCED_22_,X_INTRODUCED_20_,X_INTRODUCED_505_],876);
constraint int_lin_le(X_INTRODUCED_260_,[X_INTRODUCED_22_,X_INTRODUCED_20_,X_INTRODUCED_505_],-50);
constraint int_lin_le(X_INTRODUCED_240_,[X_INTRODUCED_500_,X_INTRODUCED_505_,X_INTRODUCED_132_],1);
constraint int_lin_le(X_INTRODUCED_34_,[X_INTRODUCED_132_,X_INTRODUCED_500_],0);
constraint int_lin_le(X_INTRODUCED_34_,[X_INTRODUCED_132_,X_INTRODUCED_505_],0);
constraint int_lin_le(X_INTRODUCED_216_,[X_INTRODUCED_28_,X_INTRODUCED_22_,X_INTRODUCED_518_],876);
constraint int_lin_le(X_INTRODUCED_220_,[X_INTRODUCED_28_,X_INTRODUCED_22_,X_INTRODUCED_518_],-1);
constraint int_lin_le(X_INTRODUCED_306_,[X_INTRODUCED_22_,X_INTRODUCED_28_,X_INTRODUCED_525_],876);
constraint int_lin_le(X_INTRODUCED_310_,[X_INTRODUCED_22_,X_INTRODUCED_28_,X_INTRODUCED_525_],-6);
constraint int_lin_le(X_INTRODUCED_240_,[X_INTRODUCED_518_,X_INTRODUCED_525_,X_INTRODUCED_137_],1);
constraint int_lin_le(X_INTRODUCED_34_,[X_INTRODUCED_137_,X_INTRODUCED_518_],0);
constraint int_lin_le(X_INTRODUCED_34_,[X_INTRODUCED_137_,X_INTRODUCED_525_],0);
constraint int_lin_le(X_INTRODUCED_216_,[X_INTRODUCED_17_,X_INTRODUCED_28_,X_INTRODUCED_536_],876);
constraint int_lin_le(X_INTRODUCED_220_,[X_INTRODUCED_17_,X_INTRODUCED_28_,X_INTRODUCED_536_],-1);
constraint int_lin_le(X_INTRODUCED_326_,[X_INTRODUCED_28_,X_INTRODUCED_17_,X_INTRODUCED_541_],876);
constraint int_lin_le(X_INTRODUCED_330_,[X_INTRODUCED_28_,X_INTRODUCED_17_,X_INTRODUCED_541_],-10);
constraint int_lin_le(X_INTRODUCED_240_,[X_INTRODUCED_536_,X_INTRODUCED_541_,X_INTRODUCED_144_],1);
constraint int_lin_le(X_INTRODUCED_34_,[X_INTRODUCED_144_,X_INTRODUCED_536_],0);
constraint int_lin_le(X_INTRODUCED_34_,[X_INTRODUCED_144_,X_INTRODUCED_541_],0);
constraint int_lin_le(X_INTRODUCED_216_,[X_INTRODUCED_19_,X_INTRODUCED_28_,X_INTRODUCED_552_],876);
constraint int_lin_le(X_INTRODUCED_220_,[X_INTRODUCED_19_,X_INTRODUCED_28_,X_INTRODUCED_552_],-1);
constraint int_lin_le(X_INTRODUCED_230_,[X_INTRODUCED_28_,X_INTRODUCED_19_,X_INTRODUCED_557_],876);
constraint int_lin_le(X_INTRODUCED_234_,[X_INTRODUCED_28_,X_INTRODUCED_19_,X_INTRODUCED_557_],-7);
constraint int_lin_le(X_INTRODUCED_240_,[X_INTRODUCED_552_,X_INTRODUCED_557_,X_INTRODUCED_149_],1);
constraint int_lin_le(X_INTRODUCED_34_,[X_INTRODUCED_149_,X_INTRODUCED_552_],0);
constraint int_lin_le(X_INTRODUCED_34_,[X_INTRODUCED_149_,X_INTRODUCED_557_],0);
constraint int_lin_le(X_INTRODUCED_216_,[X_INTRODUCED_20_,X_INTRODUCED_28_,X_INTRODUCED_568_],876);
constraint int_lin_le(X_INTRODUCED_220_,[X_INTRODUCED_20_,X_INTRODUCED_28_,X_INTRODUCED_568_],-1);
constraint int_lin_le(X_INTRODUCED_256_,[X_INTRODUCED_28_,X_INTRODUCED_20_,X_INTRODUCED_573_],876);
constraint int_lin_le(X_INTRODUCED_260_,[X_INTRODUCED_28_,X_INTRODUCED_20_,X_INTRODUCED_573_],-50);
constraint int_lin_le(X_INTRODUCED_240_,[X_INTRODUCED_568_,X_INTRODUCED_573_,X_INTRODUCED_154_],1);
constraint int_lin_le(X_INTRODUCED_34_,[X_INTRODUCED_154_,X_INTRODUCED_568_],0);
constraint int_lin_le(X_INTRODUCED_34_,[X_INTRODUCED_154_,X_INTRODUCED_573_],0);
constraint int_lin_le(X_INTRODUCED_216_,[X_INTRODUCED_22_,X_INTRODUCED_28_,X_INTRODUCED_584_],876);
constraint int_lin_le(X_INTRODUCED_220_,[X_INTRODUCED_22_,X_INTRODUCED_28_,X_INTRODUCED_584_],-1);
constraint int_lin_le(X_INTRODUCED_281_,[X_INTRODUCED_28_,X_INTRODUCED_22_,X_INTRODUCED_589_],876);
constraint int_lin_le(X_INTRODUCED_285_,[X_INTRODUCED_28_,X_INTRODUCED_22_,X_INTRODUCED_589_],-25);
constraint int_lin_le(X_INTRODUCED_240_,[X_INTRODUCED_584_,X_INTRODUCED_589_,X_INTRODUCED_159_],1);
constraint int_lin_le(X_INTRODUCED_34_,[X_INTRODUCED_159_,X_INTRODUCED_584_],0);
constraint int_lin_le(X_INTRODUCED_34_,[X_INTRODUCED_159_,X_INTRODUCED_589_],0);
constraint int_lin_le(X_INTRODUCED_216_,[X_INTRODUCED_23_,X_INTRODUCED_21_,X_INTRODUCED_603_],876);
constraint int_lin_le(X_INTRODUCED_220_,[X_INTRODUCED_23_,X_INTRODUCED_21_,X_INTRODUCED_603_],-1);
constraint int_lin_le(X_INTRODUCED_616_,[X_INTRODUCED_21_,X_INTRODUCED_23_,X_INTRODUCED_611_],876);
constraint int_lin_le(X_INTRODUCED_620_,[X_INTRODUCED_21_,X_INTRODUCED_23_,X_INTRODUCED_611_],-100);
constraint int_lin_le(X_INTRODUCED_240_,[X_INTRODUCED_603_,X_INTRODUCED_611_,X_INTRODUCED_169_],1);
constraint int_lin_le(X_INTRODUCED_34_,[X_INTRODUCED_169_,X_INTRODUCED_603_],0);
constraint int_lin_le(X_INTRODUCED_34_,[X_INTRODUCED_169_,X_INTRODUCED_611_],0);
constraint int_lin_le(X_INTRODUCED_216_,[X_INTRODUCED_25_,X_INTRODUCED_21_,X_INTRODUCED_628_],876);
constraint int_lin_le(X_INTRODUCED_220_,[X_INTRODUCED_25_,X_INTRODUCED_21_,X_INTRODUCED_628_],-1);
constraint int_lin_le(X_INTRODUCED_641_,[X_INTRODUCED_21_,X_INTRODUCED_25_,X_INTRODUCED_636_],876);
constraint int_lin_le(X_INTRODUCED_645_,[X_INTRODUCED_21_,X_INTRODUCED_25_,X_INTRODUCED_636_],-225);
constraint int_lin_le(X_INTRODUCED_240_,[X_INTRODUCED_628_,X_INTRODUCED_636_,X_INTRODUCED_174_],1);
constraint int_lin_le(X_INTRODUCED_34_,[X_INTRODUCED_174_,X_INTRODUCED_628_],0);
constraint int_lin_le(X_INTRODUCED_34_,[X_INTRODUCED_174_,X_INTRODUCED_636_],0);
constraint int_lin_le(X_INTRODUCED_216_,[X_INTRODUCED_21_,X_INTRODUCED_23_,X_INTRODUCED_651_],876);
constraint int_lin_le(X_INTRODUCED_220_,[X_INTRODUCED_21_,X_INTRODUCED_23_,X_INTRODUCED_651_],-1);
constraint int_lin_le(X_INTRODUCED_616_,[X_INTRODUCED_23_,X_INTRODUCED_21_,X_INTRODUCED_656_],876);
constraint int_lin_le(X_INTRODUCED_620_,[X_INTRODUCED_23_,X_INTRODUCED_21_,X_INTRODUCED_656_],-100);
constraint int_lin_le(X_INTRODUCED_240_,[X_INTRODUCED_651_,X_INTRODUCED_656_,X_INTRODUCED_182_],1);
constraint int_lin_le(X_INTRODUCED_34_,[X_INTRODUCED_182_,X_INTRODUCED_651_],0);
constraint int_lin_le(X_INTRODUCED_34_,[X_INTRODUCED_182_,X_INTRODUCED_656_],0);
constraint int_lin_le(X_INTRODUCED_216_,[X_INTRODUCED_25_,X_INTRODUCED_23_,X_INTRODUCED_669_],876);
constraint int_lin_le(X_INTRODUCED_220_,[X_INTRODUCED_25_,X_INTRODUCED_23_,X_INTRODUCED_669_],-1);
constraint int_lin_le(X_INTRODUCED_641_,[X_INTRODUCED_23_,X_INTRODUCED_25_,X_INTRODUCED_676_],876);
constraint int_lin_le(X_INTRODUCED_645_,[X_INTRODUCED_23_,X_INTRODUCED_25_,X_INTRODUCED_676_],-225);
constraint int_lin_le(X_INTRODUCED_240_,[X_INTRODUCED_669_,X_INTRODUCED_676_,X_INTRODUCED_188_],1);
constraint int_lin_le(X_INTRODUCED_34_,[X_INTRODUCED_188_,X_INTRODUCED_669_],0);
constraint int_lin_le(X_INTRODUCED_34_,[X_INTRODUCED_188_,X_INTRODUCED_676_],0);
constraint int_lin_le(X_INTRODUCED_216_,[X_INTRODUCED_21_,X_INTRODUCED_25_,X_INTRODUCED_687_],876);
constraint int_lin_le(X_INTRODUCED_220_,[X_INTRODUCED_21_,X_INTRODUCED_25_,X_INTRODUCED_687_],-1);
constraint int_lin_le(X_INTRODUCED_616_,[X_INTRODUCED_25_,X_INTRODUCED_21_,X_INTRODUCED_692_],876);
constraint int_lin_le(X_INTRODUCED_620_,[X_INTRODUCED_25_,X_INTRODUCED_21_,X_INTRODUCED_692_],-100);
constraint int_lin_le(X_INTRODUCED_240_,[X_INTRODUCED_687_,X_INTRODUCED_692_,X_INTRODUCED_195_],1);
constraint int_lin_le(X_INTRODUCED_34_,[X_INTRODUCED_195_,X_INTRODUCED_687_],0);
constraint int_lin_le(X_INTRODUCED_34_,[X_INTRODUCED_195_,X_INTRODUCED_692_],0);
constraint int_lin_le(X_INTRODUCED_216_,[X_INTRODUCED_23_,X_INTRODUCED_25_,X_INTRODUCED_703_],876);
constraint int_lin_le(X_INTRODUCED_220_,[X_INTRODUCED_23_,X_INTRODUCED_25_,X_INTRODUCED_703_],-1);
constraint int_lin_le(X_INTRODUCED_616_,[X_INTRODUCED_25_,X_INTRODUCED_23_,X_INTRODUCED_708_],876);
constraint int_lin_le(X_INTRODUCED_620_,[X_INTRODUCED_25_,X_INTRODUCED_23_,X_INTRODUCED_708_],-100);
constraint int_lin_le(X_INTRODUCED_240_,[X_INTRODUCED_703_,X_INTRODUCED_708_,X_INTRODUCED_200_],1);
constraint int_lin_le(X_INTRODUCED_34_,[X_INTRODUCED_200_,X_INTRODUCED_703_],0);
constraint int_lin_le(X_INTRODUCED_34_,[X_INTRODUCED_200_,X_INTRODUCED_708_],0);
solve :: int_search(X_INTRODUCED_207_,smallest,indomain_min,complete) minimize Objective;
